set VV := 0 1 2 3 4 5 6 7 8 9 10 11 12 13 14 15 16 17 18 19 20 21 22 23 24 25 26 27 28 29 30 31 32 33 34 35 36 37 38 39 ;
set VS := 0 1 2 3 4 5 6 7 8 9 10 11 12 13 14 15 16 17 18 19 20 21 22 23 24 25 26 27 28 29 30 31 32 33 34 35 36 37 38 39 40 41 42 43 44 45 46 47 48 49 50 51 52 53 54 55 56 57 58 59 60 61 62 63 64 65 66 67 68 69 70 71 72 73 74 75 76 77 78 79 80 81 82 83 84 ;
param cv := 
0 11
1 25
2 14
3 13
4 20
5 12
6 11
7 14
8 25
9 23
10 11
11 16
12 14
13 14
14 13
15 15
16 13
17 23
18 16
19 22
20 23
21 14
22 14
23 14
24 10
25 18
26 18
27 22
28 19
29 16
30 18
31 13
32 12
33 10
34 19
35 10
36 23
37 17
38 19
39 10
;
param cs := 
0 39
1 29
2 35
3 31
4 30
5 21
6 31
7 32
8 21
9 29
10 33
11 25
12 34
13 36
14 29
15 37
16 37
17 24
18 22
19 30
20 40
21 30
22 23
23 30
24 23
25 25
26 32
27 36
28 23
29 23
30 26
31 29
32 34
33 23
34 24
35 23
36 26
37 37
38 33
39 29
40 23
41 33
42 25
43 25
44 39
45 39
46 29
47 39
48 40
49 40
50 25
51 25
52 33
53 28
54 24
55 23
56 26
57 22
58 36
59 25
60 32
61 32
62 24
63 22
64 31
65 25
66 37
67 26
68 28
69 39
70 31
71 32
72 20
73 34
74 39
75 33
76 28
77 37
78 34
79 30
80 34
81 36
82 26
83 25
84 35
;
param bv:	 0 1 2 3 4 5 6 7 8 9 10 11 12 13 14 15 16 17 18 19 20 21 22 23 24 25 26 27 28 29 30 31 32 33 34 35 36 37 38 39 := 
		0 0 0 0 22 0 0 25 0 0 0 0 0 0 15 0 0 0 0 0 0 0 0 0 0 0 0 0 0 0 0 0 0 0 0 0 0 0 0 0 23 
		1 0 0 0 0 0 0 10 0 19 0 0 0 20 0 0 0 0 0 0 0 0 0 0 0 0 0 0 0 0 0 0 0 0 25 18 0 0 0 0 0 
		2 0 0 0 0 0 0 0 0 0 13 0 0 0 10 0 0 0 0 25 0 0 0 0 0 11 0 12 0 0 0 0 0 0 0 0 0 0 0 0 0 
		3 0 0 0 0 12 0 16 0 0 0 0 0 24 0 0 0 24 0 0 18 0 0 22 16 0 0 0 0 0 0 0 0 0 0 0 0 0 0 0 0 
		4 0 0 0 0 0 0 13 0 0 0 0 25 0 0 0 0 0 0 0 0 0 20 0 0 0 20 0 0 0 0 18 24 0 0 0 0 0 0 0 0 
		5 0 0 0 0 0 0 0 11 0 0 0 0 0 0 0 0 0 0 0 0 0 0 0 0 0 0 0 0 0 0 0 0 0 25 0 0 0 0 0 23 
		6 0 0 0 0 0 0 0 0 0 0 0 0 0 0 0 0 0 0 0 0 0 14 0 0 0 0 12 14 0 0 0 0 0 0 0 0 0 15 0 0 
		7 0 0 0 0 0 0 0 0 0 0 0 0 0 0 0 0 0 0 0 0 0 0 0 0 0 0 0 0 0 0 0 0 0 0 0 21 0 0 0 0 
		8 0 0 0 0 0 0 0 0 0 0 0 0 0 0 0 16 0 0 10 0 0 12 0 0 0 24 0 0 0 18 0 0 0 0 0 14 0 10 0 0 
		9 0 0 0 0 0 0 0 0 0 0 0 0 0 0 0 0 0 0 0 0 0 0 0 0 0 0 0 0 0 0 0 0 0 0 0 0 0 0 0 0 
		10 0 0 0 0 0 0 0 0 0 0 0 0 0 0 0 0 0 0 0 0 0 0 0 0 0 0 0 12 0 0 0 0 0 0 0 0 0 0 0 0 
		11 0 0 0 0 0 0 0 0 0 0 0 0 0 0 23 0 0 0 0 18 14 0 0 0 0 0 0 0 0 0 0 0 0 0 0 0 0 10 0 0 
		12 0 0 0 0 0 0 0 0 0 0 0 0 0 0 0 0 0 0 0 0 0 0 0 16 0 0 0 24 0 0 0 0 0 0 0 0 0 0 0 0 
		13 0 0 0 0 0 0 0 0 0 0 0 0 0 0 0 0 0 0 0 0 0 0 0 0 0 0 0 0 0 0 0 0 0 0 0 0 0 0 0 0 
		14 0 0 0 0 0 0 0 0 0 0 0 0 0 0 0 0 0 14 0 0 0 0 0 0 0 0 0 0 0 0 0 21 0 24 0 0 0 0 0 0 
		15 0 0 0 0 0 0 0 0 0 0 0 0 0 0 0 0 0 0 0 20 0 0 0 0 0 17 0 0 13 0 0 0 0 0 0 0 21 0 0 0 
		16 0 0 0 0 0 0 0 0 0 0 0 0 0 0 0 0 0 0 0 12 14 0 14 0 0 0 0 0 0 0 0 0 0 0 0 0 0 0 20 0 
		17 0 0 0 0 0 0 0 0 0 0 0 0 0 0 0 0 0 0 0 15 16 10 0 0 0 0 0 0 0 0 13 0 0 13 0 20 0 0 0 0 
		18 0 0 0 0 0 0 0 0 0 0 0 0 0 0 0 0 0 0 0 0 0 0 0 0 0 0 0 0 0 0 0 0 0 0 19 0 0 0 0 11 
		19 0 0 0 0 0 0 0 0 0 0 0 0 0 0 0 0 0 0 0 0 0 0 24 0 0 14 0 0 0 0 0 0 0 0 0 19 0 0 0 0 
		20 0 0 0 0 0 0 0 0 0 0 0 0 0 0 0 0 0 0 0 0 0 0 0 0 0 0 0 0 0 0 0 0 0 24 0 0 0 0 0 0 
		21 0 0 0 0 0 0 0 0 0 0 0 0 0 0 0 0 0 0 0 0 0 0 0 0 0 0 0 0 11 0 11 0 10 0 0 0 0 0 0 0 
		22 0 0 0 0 0 0 0 0 0 0 0 0 0 0 0 0 0 0 0 0 0 0 0 0 0 0 0 0 0 0 0 0 0 0 0 0 0 0 12 0 
		23 0 0 0 0 0 0 0 0 0 0 0 0 0 0 0 0 0 0 0 0 0 0 0 0 0 0 0 0 0 0 21 15 0 0 0 0 0 0 0 0 
		24 0 0 0 0 0 0 0 0 0 0 0 0 0 0 0 0 0 0 0 0 0 0 0 0 0 0 0 0 0 0 0 0 0 0 23 0 25 10 0 18 
		25 0 0 0 0 0 0 0 0 0 0 0 0 0 0 0 0 0 0 0 0 0 0 0 0 0 0 0 0 0 0 0 0 0 0 0 0 0 0 14 0 
		26 0 0 0 0 0 0 0 0 0 0 0 0 0 0 0 0 0 0 0 0 0 0 0 0 0 0 0 0 0 0 0 0 15 0 0 0 0 17 0 0 
		27 0 0 0 0 0 0 0 0 0 0 0 0 0 0 0 0 0 0 0 0 0 0 0 0 0 0 0 0 0 24 0 0 0 0 0 0 0 0 0 0 
		28 0 0 0 0 0 0 0 0 0 0 0 0 0 0 0 0 0 0 0 0 0 0 0 0 0 0 0 0 0 0 0 0 0 0 12 0 0 12 18 0 
		29 0 0 0 0 0 0 0 0 0 0 0 0 0 0 0 0 0 0 0 0 0 0 0 0 0 0 0 0 0 0 0 0 12 12 15 0 0 0 0 0 
		30 0 0 0 0 0 0 0 0 0 0 0 0 0 0 0 0 0 0 0 0 0 0 0 0 0 0 0 0 0 0 0 0 0 0 0 0 0 13 0 0 
		31 0 0 0 0 0 0 0 0 0 0 0 0 0 0 0 0 0 0 0 0 0 0 0 0 0 0 0 0 0 0 0 0 0 0 0 0 0 0 0 18 
		32 0 0 0 0 0 0 0 0 0 0 0 0 0 0 0 0 0 0 0 0 0 0 0 0 0 0 0 0 0 0 0 0 0 0 0 0 0 0 0 23 
		33 0 0 0 0 0 0 0 0 0 0 0 0 0 0 0 0 0 0 0 0 0 0 0 0 0 0 0 0 0 0 0 0 0 0 0 0 0 0 0 0 
		34 0 0 0 0 0 0 0 0 0 0 0 0 0 0 0 0 0 0 0 0 0 0 0 0 0 0 0 0 0 0 0 0 0 0 0 0 10 0 0 0 
		35 0 0 0 0 0 0 0 0 0 0 0 0 0 0 0 0 0 0 0 0 0 0 0 0 0 0 0 0 0 0 0 0 0 0 0 0 0 0 0 0 
		36 0 0 0 0 0 0 0 0 0 0 0 0 0 0 0 0 0 0 0 0 0 0 0 0 0 0 0 0 0 0 0 0 0 0 0 0 0 0 0 14 
		37 0 0 0 0 0 0 0 0 0 0 0 0 0 0 0 0 0 0 0 0 0 0 0 0 0 0 0 0 0 0 0 0 0 0 0 0 0 0 10 0 
		38 0 0 0 0 0 0 0 0 0 0 0 0 0 0 0 0 0 0 0 0 0 0 0 0 0 0 0 0 0 0 0 0 0 0 0 0 0 0 0 10 
		39 0 0 0 0 0 0 0 0 0 0 0 0 0 0 0 0 0 0 0 0 0 0 0 0 0 0 0 0 0 0 0 0 0 0 0 0 0 0 0 0 
;
param bs:	 0 1 2 3 4 5 6 7 8 9 10 11 12 13 14 15 16 17 18 19 20 21 22 23 24 25 26 27 28 29 30 31 32 33 34 35 36 37 38 39 40 41 42 43 44 45 46 47 48 49 50 51 52 53 54 55 56 57 58 59 60 61 62 63 64 65 66 67 68 69 70 71 72 73 74 75 76 77 78 79 80 81 82 83 84 := 
		0 0 0 0 0 0 0 32 0 0 0 0 0 0 28 0 0 0 0 0 0 0 0 0 0 0 0 0 0 0 0 0 0 0 0 0 0 0 25 0 0 0 0 0 0 0 0 0 0 0 0 0 29 0 0 38 0 0 0 0 0 0 0 0 32 0 0 0 0 0 0 0 0 0 0 0 0 0 0 0 0 0 28 0 0 39 
		1 0 0 0 0 0 0 0 0 0 0 0 0 0 27 0 0 0 0 0 35 0 0 0 0 0 0 0 0 0 0 0 0 0 0 0 0 0 0 39 0 0 0 0 0 0 0 0 32 0 28 0 0 0 24 0 0 0 0 0 0 0 0 0 0 0 0 20 0 0 0 0 0 0 0 0 0 0 0 27 0 0 38 0 0 0 
		2 0 0 0 0 0 0 0 0 0 25 0 26 0 0 26 0 0 0 0 0 0 0 0 0 0 28 0 0 0 0 0 0 0 0 0 0 0 0 0 0 0 0 0 0 0 0 0 0 0 0 0 40 0 0 0 0 21 0 0 22 38 0 0 0 0 32 0 0 0 0 0 40 0 0 0 0 0 0 37 0 0 0 0 0 0 
		3 0 0 0 0 0 0 0 0 0 0 29 0 0 0 0 0 0 0 0 33 0 0 0 0 0 0 0 0 0 0 31 0 0 24 21 0 0 0 0 0 0 0 0 0 0 0 0 0 0 38 0 0 0 0 29 0 0 37 0 0 0 0 0 31 0 0 0 0 0 0 0 0 0 0 0 0 0 0 0 0 0 0 0 0 0 
		4 0 0 0 0 0 0 0 0 0 0 0 0 0 0 0 32 0 0 24 38 0 0 0 21 0 0 0 0 36 0 0 0 0 0 0 0 0 0 24 0 0 0 0 0 0 0 0 0 0 0 0 0 22 0 0 0 38 0 0 0 0 0 0 0 0 25 0 0 0 34 0 0 0 0 0 0 0 0 0 0 0 0 0 0 0 
		5 0 0 0 0 0 0 0 0 0 0 0 0 0 0 0 0 0 0 0 0 0 37 20 0 27 0 0 0 0 37 0 0 0 0 0 0 23 27 0 0 0 39 0 0 0 0 0 0 0 0 0 26 28 0 0 0 34 0 0 34 0 0 0 0 21 31 0 0 0 0 0 0 0 0 0 0 0 0 0 0 0 0 0 0 0 
		6 32 0 0 0 0 0 0 0 0 0 31 34 0 0 22 34 0 28 0 0 0 0 0 0 0 0 0 0 0 0 0 0 0 0 0 0 0 0 40 0 0 0 0 0 0 0 0 21 0 29 0 0 0 0 0 0 0 0 0 0 0 0 0 0 0 0 0 0 20 0 0 0 0 0 0 0 22 27 0 0 0 0 0 0 22 
		7 0 0 0 0 0 0 0 0 0 0 37 0 0 0 0 0 0 0 0 0 0 0 0 0 0 0 0 0 0 0 0 0 22 0 0 0 0 0 0 0 0 0 0 0 0 0 0 0 0 0 0 23 0 0 0 0 0 0 0 0 0 0 0 32 0 0 0 0 23 0 0 0 0 40 0 0 0 0 39 0 0 0 0 0 0 
		8 0 0 0 0 0 0 0 0 0 0 0 0 0 0 0 0 0 0 0 0 0 0 0 0 0 0 0 0 0 0 0 32 26 0 0 0 0 20 0 0 0 0 0 0 0 0 0 0 0 0 0 0 0 0 0 0 0 0 0 0 32 0 33 32 29 0 0 0 32 0 0 0 0 0 40 0 0 20 0 0 0 24 0 0 0 
		9 0 0 25 0 0 0 0 0 0 0 0 0 0 0 0 0 0 0 0 0 0 21 0 0 0 0 0 28 0 0 0 0 38 0 0 0 33 0 0 31 0 0 0 0 0 0 0 0 34 0 25 0 0 0 0 0 0 0 0 0 0 0 0 0 0 0 0 0 0 0 0 0 0 0 0 0 0 0 28 0 0 0 0 38 0 
		10 0 0 0 29 0 0 31 37 0 0 0 0 0 0 0 0 0 0 0 0 0 36 25 0 0 0 0 33 0 0 0 0 0 0 0 0 0 0 29 32 0 0 0 0 0 0 0 0 0 0 0 30 0 35 0 0 0 0 0 0 30 28 0 0 0 30 24 0 0 0 30 0 0 0 0 0 0 0 0 0 0 0 0 0 0 
		11 0 0 26 0 0 0 34 0 0 0 0 0 0 0 0 0 33 0 0 0 0 0 0 0 0 0 0 0 0 0 0 0 0 0 0 0 0 0 0 0 0 0 0 0 0 0 0 0 0 0 0 25 31 0 0 0 0 0 0 0 0 0 0 0 0 0 0 0 0 38 0 0 0 0 0 0 0 0 0 0 0 0 0 0 0 
		12 0 0 0 0 0 0 0 0 0 0 0 0 0 0 0 0 0 0 0 0 0 0 0 0 0 0 0 0 0 0 0 0 28 24 0 0 0 0 0 0 38 0 0 0 0 0 0 0 0 0 0 0 0 0 0 0 0 0 0 0 0 0 0 0 0 0 0 0 0 0 0 0 0 0 0 0 0 0 39 0 0 0 0 0 0 
		13 28 27 0 0 0 0 0 0 0 0 0 0 0 0 0 0 0 0 0 0 0 0 0 0 0 0 0 39 0 0 0 0 0 31 0 0 0 0 0 0 0 0 0 29 0 0 0 0 0 0 0 0 0 0 0 0 0 0 33 0 0 0 0 0 0 0 0 0 32 0 0 0 0 0 0 0 25 0 0 0 0 0 0 0 0 
		14 0 0 26 0 0 0 22 0 0 0 0 0 0 0 0 0 0 0 0 0 0 0 0 0 0 0 0 0 0 0 0 0 0 0 0 0 39 20 0 0 0 0 29 0 0 0 0 0 0 0 0 0 0 0 0 0 36 0 0 34 0 0 40 0 0 32 0 33 0 31 0 0 0 0 0 21 0 0 0 0 0 0 20 0 0 
		15 0 0 0 0 32 0 34 0 0 0 0 0 0 0 0 0 0 0 0 0 0 0 0 0 0 0 0 0 0 0 39 35 38 0 0 0 0 0 0 0 0 0 0 0 0 0 0 0 0 0 0 0 0 0 0 0 0 0 0 0 0 0 0 36 0 0 0 0 33 0 0 0 0 0 0 0 0 0 0 0 0 21 38 0 0 
		16 0 0 0 0 0 0 0 0 0 0 0 33 0 0 0 0 0 21 0 0 0 0 0 0 33 0 0 36 0 0 0 0 0 0 23 0 0 0 0 37 0 0 37 0 0 0 0 0 0 0 0 24 0 0 0 0 0 0 0 31 40 0 0 0 0 0 30 0 0 0 0 39 0 0 0 0 0 0 0 0 0 0 0 39 0 
		17 0 0 0 0 0 0 28 0 0 0 0 0 0 0 0 0 21 0 0 0 0 0 0 0 0 0 0 0 0 0 0 0 24 0 0 0 0 0 0 0 0 0 0 0 0 0 0 0 0 0 32 0 0 0 0 0 0 0 0 0 0 0 0 0 0 0 20 0 0 0 0 0 0 0 0 0 0 0 26 0 0 0 0 0 0 
		18 0 0 0 0 24 0 0 0 0 0 0 0 0 0 0 0 0 0 0 0 0 0 0 0 0 0 0 0 0 0 0 0 0 0 0 0 0 0 0 0 0 0 29 0 0 0 0 0 0 21 0 0 0 0 0 0 0 0 0 0 0 0 0 0 0 0 0 0 0 0 0 0 0 0 0 0 0 0 0 0 0 0 0 0 0 
		19 0 35 0 33 38 0 0 0 0 0 0 0 0 0 0 0 0 0 0 0 0 0 0 0 0 0 0 0 22 0 0 0 0 0 0 0 0 0 0 0 0 0 34 0 0 0 0 0 0 0 0 0 0 0 0 0 0 0 0 0 0 0 24 0 0 0 0 0 0 20 0 30 0 0 0 0 0 0 0 0 0 0 0 0 0 
		20 0 0 0 0 0 0 0 0 0 0 0 0 0 0 0 0 0 0 0 0 0 0 0 0 0 0 0 0 0 0 0 0 0 30 0 0 37 0 0 28 0 0 0 0 0 37 0 0 26 0 0 0 0 0 0 0 0 0 0 0 0 0 0 0 0 0 0 0 0 0 0 0 0 0 0 0 0 0 0 0 0 0 0 0 32 
		21 0 0 0 0 0 37 0 0 0 21 36 0 0 0 0 0 0 0 0 0 0 0 0 0 0 0 0 0 0 0 0 0 25 0 0 36 23 31 0 0 0 0 25 0 0 0 0 38 0 0 33 0 0 0 35 0 0 0 0 0 37 0 0 0 0 0 0 0 23 0 0 0 39 28 0 0 0 0 31 0 0 36 0 0 0 
		22 0 0 0 0 0 20 0 0 0 0 25 0 0 0 0 0 0 0 0 0 0 0 0 0 25 0 0 0 0 0 0 0 0 0 0 0 0 0 0 0 0 0 0 0 0 0 0 0 0 0 0 0 32 0 0 0 0 0 0 0 0 0 0 0 0 0 0 0 32 0 20 0 0 0 0 0 28 37 0 36 0 35 37 0 0 
		23 0 0 0 0 21 0 0 0 0 0 0 0 0 0 0 0 0 0 0 0 0 0 0 0 0 0 0 0 0 35 0 0 0 0 0 0 0 0 0 0 37 0 0 0 0 0 0 0 0 0 20 0 0 0 0 28 0 0 0 27 0 0 0 0 0 0 29 0 0 0 0 0 0 0 0 0 0 0 0 30 0 30 0 20 0 
		24 0 0 0 0 0 27 0 0 0 0 0 0 0 0 0 0 33 0 0 0 0 0 25 0 0 0 0 0 25 0 0 0 0 0 0 0 0 0 0 0 0 0 0 0 0 0 0 0 0 27 0 0 0 0 0 0 0 0 0 28 0 0 0 0 0 29 0 0 0 0 0 0 0 0 0 0 0 0 0 0 0 0 0 0 0 
		25 0 0 28 0 0 0 0 0 0 0 0 0 0 0 0 0 0 0 0 0 0 0 0 0 0 0 0 0 35 0 0 0 21 0 0 0 26 0 0 0 0 0 0 0 0 0 0 0 0 0 0 0 0 0 0 0 23 0 0 0 0 0 0 0 0 26 0 30 0 0 26 35 0 0 0 36 0 0 0 0 0 0 0 0 0 
		26 0 0 0 0 0 0 0 0 0 0 0 0 0 0 0 0 0 0 0 0 0 0 0 0 0 0 0 20 0 0 0 0 0 0 40 0 0 0 0 0 0 0 0 0 0 36 0 0 0 0 24 0 0 0 0 0 0 0 23 0 0 0 0 0 37 0 0 0 0 0 0 0 0 0 0 0 0 0 0 0 0 0 0 0 0 
		27 0 0 0 0 0 0 0 0 0 28 33 0 0 39 0 0 36 0 0 0 0 0 0 0 0 0 20 0 0 0 0 0 0 0 0 0 0 0 0 0 0 0 0 0 0 0 0 0 0 0 0 0 0 34 21 0 0 0 0 40 0 0 0 0 0 0 25 0 20 0 0 0 0 20 0 0 0 0 0 0 0 30 0 0 0 
		28 0 0 0 0 36 0 0 0 0 0 0 0 0 0 0 0 0 0 0 22 0 0 0 0 25 35 0 0 0 0 0 0 0 0 0 25 0 0 0 37 0 0 25 0 0 0 30 0 0 0 0 0 0 0 0 0 0 0 0 0 20 0 0 0 0 0 0 0 23 36 40 0 0 0 0 0 0 0 0 0 0 0 0 0 0 
		29 0 0 0 0 0 37 0 0 0 0 0 0 0 0 0 0 0 0 0 0 0 0 0 35 0 0 0 0 0 0 0 0 0 0 0 0 0 0 0 24 0 0 0 0 0 0 0 0 0 0 0 0 0 0 27 0 0 0 0 0 0 0 0 0 0 0 23 0 0 0 0 0 0 0 0 0 0 0 0 0 0 0 0 0 0 
		30 0 0 0 31 0 0 0 0 0 0 0 0 0 0 0 39 0 0 0 0 0 0 0 0 0 0 0 0 0 0 0 0 0 0 0 0 0 0 0 0 0 0 0 29 32 0 0 0 0 0 0 0 0 0 0 40 0 0 0 0 0 0 0 0 0 0 0 0 0 0 0 0 0 0 0 0 0 0 0 0 0 0 0 0 0 
		31 0 0 0 0 0 0 0 0 32 0 0 0 0 0 0 35 0 0 0 0 0 0 0 0 0 0 0 0 0 0 0 0 0 0 0 0 0 0 0 0 0 0 34 0 0 37 0 0 0 21 0 0 0 0 0 0 0 0 0 0 0 0 26 0 30 0 0 0 0 25 0 0 0 0 29 0 0 0 0 0 0 0 26 35 0 
		32 0 0 0 0 0 0 0 22 26 38 0 0 28 0 0 38 0 24 0 0 0 25 0 0 0 21 0 0 0 0 0 0 0 0 0 0 0 0 0 0 0 26 0 0 0 0 0 0 0 0 0 0 0 0 0 0 0 0 0 35 0 0 0 0 0 0 0 0 22 0 0 0 0 0 0 0 0 0 21 0 0 0 0 0 0 
		33 0 0 0 24 0 0 0 0 0 0 0 0 24 31 0 0 0 0 0 0 30 0 0 0 0 0 0 0 0 0 0 0 0 0 0 0 0 0 0 0 0 0 0 0 0 34 0 37 0 37 0 0 0 0 0 0 0 0 29 0 21 0 0 33 0 0 0 0 0 0 0 0 0 23 0 0 0 33 0 0 32 0 0 0 0 
		34 0 0 0 21 0 0 0 0 0 0 0 0 0 0 0 0 23 0 0 0 0 0 0 0 0 0 40 0 0 0 0 0 0 0 0 0 0 33 37 0 0 0 0 0 32 0 0 0 0 24 0 0 0 0 0 0 0 0 37 0 0 0 0 0 0 0 0 0 0 0 0 0 0 0 0 0 0 0 0 0 28 0 0 0 0 
		35 0 0 0 0 0 0 0 0 0 0 0 0 0 0 0 0 0 0 0 0 0 36 0 0 0 0 0 0 25 0 0 0 0 0 0 0 0 0 40 0 33 0 0 30 0 0 0 0 0 0 0 0 0 0 0 0 0 0 0 0 0 0 0 0 0 0 0 0 0 0 0 0 0 23 0 0 34 0 0 0 0 0 0 0 27 
		36 0 0 0 0 0 23 0 0 0 33 0 0 0 0 39 0 0 0 0 0 37 23 0 0 0 26 0 0 0 0 0 0 0 0 0 0 0 0 0 0 0 33 0 0 0 0 0 36 0 0 0 0 0 0 0 0 21 0 0 0 0 0 0 0 0 0 0 0 0 0 0 0 0 0 0 0 0 0 0 0 0 0 0 0 0 
		37 25 0 0 0 0 27 0 0 20 0 0 0 0 0 20 0 0 0 0 0 0 31 0 0 0 0 0 0 0 0 0 0 0 0 33 0 0 0 0 0 0 35 0 0 0 0 0 0 0 0 0 36 0 0 0 0 0 0 0 0 20 37 0 0 0 0 0 0 0 0 0 0 0 0 0 0 0 0 0 0 0 0 0 0 0 
		38 0 39 0 0 24 0 40 0 0 0 29 0 0 0 0 0 0 0 0 0 0 0 0 0 0 0 0 0 0 0 0 0 0 0 37 40 0 0 0 0 0 0 0 0 0 0 25 0 0 0 0 0 0 0 0 0 0 0 36 0 0 0 0 0 0 0 0 0 0 0 0 0 0 0 0 0 0 0 0 0 0 0 0 0 0 
		39 0 0 0 0 0 0 0 0 0 31 32 0 0 0 0 0 37 0 0 0 28 0 0 0 0 0 0 0 37 24 0 0 0 0 0 0 0 0 0 0 0 0 0 0 26 0 0 0 0 0 27 0 0 34 32 0 32 0 0 0 0 0 0 0 0 0 0 0 0 0 0 0 0 27 0 0 0 0 0 0 0 0 0 0 26 
		40 0 0 0 0 0 0 0 0 0 0 0 0 38 0 0 0 0 0 0 0 0 0 0 37 0 0 0 0 0 0 0 0 0 0 0 33 0 0 0 0 0 0 0 0 0 0 0 0 0 0 0 0 39 0 0 35 0 0 27 0 0 0 0 0 23 0 0 0 0 0 0 39 0 0 0 22 37 26 0 25 0 22 0 0 0 
		41 0 0 0 0 0 39 0 0 0 0 0 0 0 0 0 0 0 0 0 0 0 0 0 0 0 0 0 0 0 0 0 0 26 0 0 0 33 35 0 0 0 0 0 0 0 0 0 0 0 0 0 0 0 0 0 0 0 0 0 0 0 0 0 0 0 0 0 0 0 0 0 0 0 0 0 0 0 0 0 0 0 0 0 38 0 
		42 0 0 0 0 0 0 0 0 0 0 0 0 0 0 29 0 37 0 29 34 0 25 0 0 0 0 0 0 25 0 0 34 0 0 0 0 0 0 0 0 0 0 0 0 0 0 0 0 0 0 0 0 0 0 0 0 0 0 0 0 30 0 0 0 0 20 0 0 0 35 40 30 0 0 0 0 0 0 0 0 0 0 0 0 0 
		43 0 0 0 0 0 0 0 0 0 0 0 0 0 29 0 0 0 0 0 0 0 0 0 0 0 0 0 0 0 0 29 0 0 0 0 30 0 0 0 0 0 0 0 0 0 32 0 0 0 0 0 0 0 0 0 0 0 0 0 0 0 0 0 0 0 0 0 0 0 0 0 0 0 25 0 0 0 0 0 0 0 0 0 36 0 
		44 0 0 0 0 0 0 0 0 0 0 0 0 0 0 0 0 0 0 0 0 0 0 0 0 0 0 0 0 0 0 32 0 0 0 32 0 0 0 0 26 0 0 0 0 0 0 0 0 0 0 0 0 0 0 0 28 0 0 0 21 0 0 27 0 0 0 25 0 0 0 0 0 0 23 0 0 0 30 0 33 0 0 0 0 0 
		45 0 0 0 0 0 0 0 0 0 0 0 0 0 0 0 0 0 0 0 0 37 0 0 0 0 0 36 0 0 0 0 37 0 34 0 0 0 0 0 0 0 0 0 32 0 0 0 0 0 0 0 0 0 0 0 0 0 0 36 0 0 0 0 0 0 0 0 0 0 0 0 0 0 0 0 0 0 33 0 0 0 20 0 0 0 
		46 0 0 0 0 0 0 0 0 0 0 0 0 0 0 0 0 0 0 0 0 0 0 0 0 0 0 0 0 30 0 0 0 0 0 0 0 0 0 25 0 0 0 0 0 0 0 0 40 0 0 0 0 0 0 0 0 0 0 0 0 0 0 31 0 0 0 0 29 0 0 0 0 0 0 0 0 0 0 0 0 0 0 0 0 0 
		47 0 32 0 0 0 0 21 0 0 0 0 0 0 0 0 0 0 0 0 0 0 38 0 0 0 0 0 0 0 0 0 0 0 37 0 0 36 0 0 0 0 0 0 0 0 0 40 0 0 0 0 0 0 32 0 0 0 0 0 0 0 0 0 0 0 0 35 0 0 0 27 0 0 33 0 0 0 0 0 0 0 36 0 0 0 
		48 0 0 0 0 0 0 0 0 0 34 0 0 0 0 0 0 0 0 0 0 26 0 0 0 0 0 0 0 0 0 0 0 0 0 0 0 0 0 0 0 0 0 0 0 0 0 0 0 0 0 25 0 0 0 0 0 0 0 28 0 0 0 0 0 0 0 0 0 0 0 0 0 0 0 0 37 0 0 0 0 0 0 0 0 0 
		49 0 28 0 38 0 0 29 0 0 0 0 0 0 0 0 0 0 0 21 0 0 0 0 0 27 0 0 0 0 0 0 21 0 37 24 0 0 0 0 0 0 0 0 0 0 0 0 0 0 0 0 0 0 23 0 0 0 0 0 0 0 24 0 31 0 0 0 21 0 39 0 0 0 0 0 0 24 0 0 0 0 0 38 0 0 
		50 0 0 0 0 0 0 0 0 0 25 0 0 0 0 0 0 0 32 0 0 0 33 0 20 0 0 24 0 0 0 0 0 0 0 0 0 0 0 0 27 0 0 0 0 0 0 0 0 25 0 0 0 0 0 0 0 0 0 0 0 0 0 0 0 0 0 0 0 0 0 0 0 0 0 0 0 0 0 24 0 0 0 0 0 0 
		51 29 0 40 0 0 26 0 23 0 0 30 25 0 0 0 0 24 0 0 0 0 0 0 0 0 0 0 0 0 0 0 0 0 0 0 0 0 36 0 0 0 0 0 0 0 0 0 0 0 0 0 0 0 0 0 0 0 0 0 0 0 0 20 0 0 0 0 0 0 0 0 0 0 0 0 0 0 0 0 0 0 0 0 0 0 
		52 0 0 0 0 22 28 0 0 0 0 0 31 0 0 0 0 0 0 0 0 0 0 32 0 0 0 0 0 0 0 0 0 0 0 0 0 0 0 0 0 39 0 0 0 0 0 0 0 0 0 0 0 0 30 0 30 0 0 0 0 0 0 0 0 0 0 0 0 0 0 0 0 0 0 0 0 34 0 0 0 0 0 0 0 0 
		53 0 24 0 0 0 0 0 0 0 0 35 0 0 0 0 0 0 0 0 0 0 0 0 0 0 0 0 34 0 0 0 0 0 0 0 0 0 0 0 34 0 0 0 0 0 0 0 32 0 23 0 0 30 0 36 0 0 0 20 0 0 0 0 0 0 0 0 0 0 0 0 0 0 0 25 0 0 0 0 0 0 0 0 0 0 
		54 38 0 0 29 0 0 0 0 0 0 0 0 0 0 0 0 0 0 0 0 0 35 0 0 0 0 0 21 0 27 0 0 0 0 0 0 0 0 0 32 0 0 0 0 0 0 0 0 0 0 0 0 0 36 0 0 0 0 0 0 27 0 0 0 0 0 0 0 0 0 0 0 0 0 0 0 0 0 21 0 0 0 0 0 0 
		55 0 0 0 0 0 0 0 0 0 0 0 0 0 0 0 0 0 0 0 0 0 0 0 28 0 0 0 0 0 0 40 0 0 0 0 0 0 0 0 0 35 0 0 0 28 0 0 0 0 0 0 0 30 0 0 0 0 0 0 0 0 0 0 31 0 0 0 0 0 0 0 38 0 0 0 0 0 0 0 0 0 26 0 0 34 
		56 0 0 21 0 38 34 0 0 0 0 0 0 0 0 36 0 0 0 0 0 0 0 0 0 0 23 0 0 0 0 0 0 0 0 0 0 21 0 0 32 0 0 0 0 0 0 0 0 0 0 0 0 0 0 0 0 0 0 0 0 0 27 0 0 0 25 0 0 0 39 0 0 0 0 0 0 0 0 0 0 0 0 0 0 0 
		57 0 0 0 37 0 0 0 0 0 0 0 0 0 0 0 0 0 0 0 0 0 0 0 0 0 0 0 0 0 0 0 0 0 0 0 0 0 0 0 0 0 0 0 0 0 0 0 0 0 0 0 0 0 0 0 0 0 0 0 0 0 0 0 0 0 0 0 0 0 0 0 0 0 0 0 0 0 0 0 0 0 0 0 0 0 
		58 0 0 0 0 0 0 0 0 0 0 0 0 0 33 0 0 0 0 0 0 0 0 0 0 0 0 23 0 0 0 0 0 0 29 37 0 0 0 36 0 27 0 0 0 0 36 0 0 28 0 0 0 0 20 0 0 0 0 0 0 0 0 0 0 33 0 0 0 0 0 0 0 0 0 0 0 0 0 0 0 0 0 0 0 0 
		59 0 0 22 0 0 34 0 0 0 0 0 0 0 0 34 0 31 0 0 0 0 0 0 27 28 0 0 40 0 0 0 0 35 0 0 0 0 0 0 0 0 0 0 0 21 0 0 0 0 0 0 0 0 0 0 0 0 0 0 0 0 0 0 0 0 0 0 0 0 35 39 0 0 0 0 0 0 0 0 0 0 0 0 0 0 
		60 0 0 38 0 0 0 0 0 32 0 30 0 0 0 0 0 40 0 0 0 0 37 0 0 0 0 0 0 20 0 0 0 0 21 0 0 0 20 0 0 0 0 30 0 0 0 0 0 0 0 0 0 0 0 27 0 0 0 0 0 0 0 40 0 0 0 36 0 0 0 0 0 0 37 0 0 0 0 0 0 0 0 0 0 0 
		61 0 0 0 0 0 0 0 0 0 0 28 0 0 0 0 0 0 0 0 0 0 0 0 0 0 0 0 0 0 0 0 0 0 0 0 0 0 37 0 0 0 0 0 0 0 0 0 0 0 24 0 0 0 0 0 0 27 0 0 0 0 0 0 0 39 0 0 0 0 20 0 21 0 0 0 0 26 0 0 0 0 0 0 0 0 
		62 0 0 0 0 0 0 0 0 33 0 0 0 0 0 40 0 0 0 0 24 0 0 0 0 0 0 0 0 0 0 0 26 0 0 0 0 0 0 0 0 0 0 0 0 27 0 31 0 0 0 0 20 0 0 0 0 0 0 0 0 40 0 0 0 0 27 0 0 0 0 0 0 0 28 0 0 0 0 0 0 0 0 0 0 0 
		63 32 0 0 31 0 0 0 32 32 0 0 0 0 0 0 36 0 0 0 0 0 0 0 0 0 0 0 0 0 0 0 0 0 33 0 0 0 0 0 0 0 0 0 0 0 0 0 0 0 31 0 0 0 0 0 31 0 0 0 0 0 0 0 0 0 0 0 0 0 0 0 23 22 0 0 0 0 0 0 0 0 0 0 0 0 
		64 0 0 0 0 0 21 0 0 29 0 0 0 0 0 0 0 0 0 0 0 0 0 0 0 0 0 37 0 0 0 0 30 0 0 0 0 0 0 0 0 23 0 0 0 0 0 0 0 0 0 0 0 0 0 0 0 0 0 33 0 0 39 0 0 0 0 0 0 0 29 0 0 0 0 0 0 0 0 33 0 0 0 0 0 0 
		65 0 0 32 0 25 31 0 0 0 0 30 0 0 0 32 0 0 0 0 0 0 0 0 0 29 26 0 0 0 0 0 0 0 0 0 0 0 0 0 0 0 0 20 0 0 0 0 0 0 0 0 0 0 0 0 0 25 0 0 0 0 0 27 0 0 0 0 0 0 35 0 0 0 0 0 0 0 0 0 0 0 0 0 0 0 
		66 0 20 0 0 0 0 0 0 0 0 24 0 0 0 0 0 30 20 0 0 0 0 0 29 0 0 0 25 0 23 0 0 0 0 0 0 0 0 0 0 0 0 0 0 25 0 0 35 0 0 0 0 0 0 0 0 0 0 0 0 36 0 0 0 0 0 0 0 29 40 0 0 0 0 0 0 26 0 0 0 0 0 0 0 0 
		67 0 0 0 0 0 0 0 0 0 0 0 0 0 0 33 0 0 0 0 0 0 0 0 0 0 30 0 0 0 0 0 0 0 0 0 0 0 0 0 0 0 0 0 0 0 0 29 0 0 21 0 0 0 0 0 0 0 0 0 0 0 0 0 0 0 0 0 0 0 0 33 0 0 0 0 0 0 0 0 0 0 0 0 0 0 
		68 0 0 0 0 0 0 20 23 32 0 0 0 0 32 0 33 0 0 0 0 0 23 32 0 0 0 0 20 23 0 0 0 22 0 0 0 0 0 0 0 0 0 0 0 0 0 0 0 0 0 0 0 0 0 0 0 0 0 0 0 0 0 0 0 0 0 29 0 0 0 0 0 0 0 0 0 0 0 0 0 0 0 0 0 0 
		69 0 0 0 0 34 0 0 0 0 0 0 38 0 0 31 0 0 0 0 20 0 0 0 0 0 0 0 0 36 0 0 25 0 0 0 0 0 0 0 0 0 0 35 0 0 0 0 0 0 39 0 0 0 0 0 0 39 0 0 35 0 20 0 0 29 35 40 0 0 0 34 0 0 0 34 0 0 26 24 0 0 0 0 0 38 
		70 0 0 0 0 0 0 0 0 0 0 30 0 0 0 0 0 0 0 0 0 0 0 20 0 0 26 0 0 40 0 0 0 0 0 0 0 0 0 0 0 0 0 40 0 0 0 0 27 0 0 0 0 0 0 0 0 0 0 0 39 0 0 0 0 0 0 0 33 0 34 0 0 0 0 27 0 0 0 0 0 0 0 0 0 0 
		71 0 0 40 0 0 0 0 0 0 0 0 0 0 0 0 0 39 0 0 30 0 0 0 0 0 35 0 0 0 0 0 0 0 0 0 0 0 0 0 0 39 0 30 0 0 0 0 0 0 0 0 0 0 0 0 38 0 0 0 0 0 21 0 23 0 0 0 0 0 0 0 0 0 0 0 0 0 0 0 22 0 0 0 0 0 
		72 0 0 0 0 0 0 0 0 0 0 0 0 0 0 0 0 0 0 0 0 0 39 0 0 0 0 0 0 0 0 0 0 0 0 0 0 0 0 0 0 0 0 0 0 0 0 0 0 0 0 0 0 0 0 0 0 0 0 0 0 0 0 0 22 0 0 0 0 0 0 0 0 0 0 0 0 0 0 0 0 0 32 0 0 0 
		73 0 0 0 0 0 0 0 40 0 0 0 0 0 0 0 0 0 0 0 0 0 28 0 0 0 0 0 20 0 0 0 0 0 23 0 23 0 0 0 27 0 0 0 25 23 0 0 33 0 0 0 0 0 0 0 0 0 0 0 0 37 0 28 0 0 0 0 0 0 0 0 0 0 0 0 0 0 0 39 0 22 0 0 0 22 
		74 0 0 0 0 0 0 0 0 40 0 0 0 0 0 0 0 0 0 0 0 0 0 0 0 0 0 0 0 0 0 0 29 0 0 0 0 0 0 0 0 0 0 0 0 0 0 0 0 0 0 0 0 0 25 0 0 0 0 0 0 0 0 0 0 0 0 0 0 0 34 27 0 0 0 0 0 0 0 0 0 0 0 0 0 0 
		75 0 0 0 0 0 0 0 0 0 0 0 0 0 0 21 0 0 0 0 0 0 0 0 0 0 36 0 0 0 0 0 0 0 0 0 0 0 0 0 0 22 0 0 0 0 0 0 0 37 0 0 0 0 0 0 0 0 0 0 0 0 0 0 0 0 0 0 0 0 0 0 0 0 0 0 0 0 0 0 0 0 0 0 0 0 
		76 0 0 0 0 0 0 22 0 0 0 0 0 0 25 0 0 0 0 0 0 0 0 28 0 0 0 0 0 0 0 0 0 0 0 0 34 0 0 0 0 37 0 0 0 0 0 0 0 0 24 0 0 34 0 0 0 0 0 0 0 0 26 0 0 0 0 26 0 0 0 0 0 0 0 0 0 0 0 0 0 0 33 0 39 32 
		77 0 0 0 0 0 0 27 0 20 0 0 0 0 0 0 0 0 0 0 0 0 0 37 0 0 0 0 0 0 0 0 0 0 33 0 0 0 0 0 0 26 0 0 0 30 33 0 0 0 0 0 0 0 0 0 0 0 0 0 0 0 0 0 0 0 0 0 0 0 26 0 0 0 0 0 0 0 0 0 21 0 0 25 0 0 
		78 0 27 37 0 0 0 0 39 0 28 0 0 39 0 0 0 0 26 0 0 0 31 0 0 0 0 0 0 0 0 0 0 21 0 0 0 0 0 0 0 0 0 0 0 0 0 0 0 0 0 24 0 0 0 21 0 0 0 0 0 0 0 0 0 33 0 0 0 0 24 0 0 0 39 0 0 0 0 0 0 0 29 0 0 0 
		79 0 0 0 0 0 0 0 0 0 0 0 0 0 0 0 0 0 0 0 0 0 0 36 30 0 0 0 0 0 0 0 0 0 0 0 0 0 0 0 0 25 0 0 0 33 0 0 0 0 0 0 0 0 0 0 0 0 0 0 0 0 0 0 0 0 0 0 0 0 0 0 22 0 0 0 0 0 21 0 0 0 0 0 0 0 
		80 0 0 0 0 0 0 0 0 0 0 0 0 0 0 0 0 0 0 0 0 0 0 0 0 0 0 0 0 0 0 0 0 0 32 28 0 0 0 0 0 0 0 0 0 0 0 0 0 0 0 0 0 0 0 0 0 0 0 0 0 0 0 0 0 0 0 0 0 0 0 0 0 0 22 0 0 0 0 0 0 0 0 0 35 0 
		81 28 38 0 0 0 0 0 0 24 0 0 0 0 0 0 21 0 0 0 0 0 36 35 30 0 0 0 30 0 0 0 0 0 0 0 0 0 0 0 0 22 0 0 0 0 20 0 36 0 0 0 0 0 0 0 26 0 0 0 0 0 0 0 0 0 0 0 0 0 0 0 0 32 0 0 0 33 0 29 0 0 0 0 0 0 
		82 0 0 0 0 0 0 0 0 0 0 0 0 0 0 20 38 0 0 0 0 0 0 37 0 0 0 0 0 0 0 0 26 0 0 0 0 0 0 0 0 0 0 0 0 0 0 0 0 0 38 0 0 0 0 0 0 0 0 0 0 0 0 0 0 0 0 0 0 0 0 0 0 0 0 0 0 0 25 0 0 0 0 0 0 0 
		83 0 0 0 0 0 0 0 0 0 38 0 0 0 0 0 0 39 0 0 0 0 0 0 20 0 0 0 0 0 0 0 35 0 0 0 0 0 0 0 0 0 38 0 36 0 0 0 0 0 0 0 0 0 0 0 0 0 0 0 0 0 0 0 0 0 0 0 0 0 0 0 0 0 0 0 0 39 0 0 0 35 0 0 0 0 
		84 39 0 0 0 0 0 22 0 0 0 0 0 0 0 0 0 0 0 0 0 32 0 0 0 0 0 0 0 0 0 0 0 0 0 0 27 0 0 0 26 0 0 0 0 0 0 0 0 0 0 0 0 0 0 0 34 0 0 0 0 0 0 0 0 0 0 0 0 0 38 0 0 0 22 0 0 32 0 0 0 0 0 0 0 0 
;
